SECTION Graph
Nodes 223
Edges 404
E 1 2 4
E 1 62 16
E 1 96 1
E 1 103 7
E 2 63 16
E 2 98 1
E 2 108 7
E 3 96 7
E 3 103 1
E 4 59 1
E 4 101 7
E 5 81 7
E 6 7 1
E 6 79 2
E 6 81 1
E 6 85 8
E 7 86 24
E 8 205 7
E 9 199 10
E 9 200 9
E 9 203 2
E 9 205 2
E 10 205 3
E 10 206 1
E 11 129 40
E 11 138 9
E 11 148 24
E 12 25 35
E 12 135 7
E 12 138 5
E 13 14 7
E 13 148 51
E 13 170 1
E 14 15 1
E 14 176 1
E 15 16 7
E 15 178 1
E 16 17 1
E 16 180 1
E 17 18 7
E 17 181 1
E 18 19 5
E 18 183 1
E 19 184 1
E 19 196 23
E 20 186 14
E 20 190 3
E 20 197 8
E 20 198 9
E 21 190 8
E 21 195 2
E 21 196 1
E 21 197 3
E 22 100 1
E 22 106 1
E 22 114 7
E 23 106 3
E 23 110 1
E 23 118 7
E 24 95 23
E 24 100 7
E 24 114 1
E 24 121 9
E 25 61 1
E 25 112 7
E 25 129 9
E 26 28 7
E 26 94 1
E 27 62 1
E 27 96 16
E 28 63 1
E 28 95 1
E 28 98 16
E 29 186 9
E 29 189 1
E 29 198 14
E 30 31 1
E 30 193 1
E 31 32 7
E 32 36 4
E 33 34 4
E 33 172 17
E 33 187 14
E 34 185 2
E 34 188 14
E 35 36 9
E 37 146 1
E 37 149 7
E 38 145 12
E 38 146 7
E 38 149 1
E 38 150 2
E 39 149 2
E 39 154 2
E 40 115 30
E 40 130 15
E 40 134 2
E 40 136 7
E 41 113 37
E 41 132 19
E 41 136 1
E 41 141 16
E 42 134 7
E 42 136 2
E 42 143 16
E 42 144 16
E 43 133 2
E 43 140 30
E 44 107 16
E 44 133 7
E 45 91 1
E 45 93 7
E 46 91 7
E 46 92 7
E 46 93 1
E 46 97 39
E 47 93 2
E 47 102 38
E 47 105 39
E 48 50 7
E 48 87 1
E 48 89 53
E 49 50 2
E 49 84 16
E 49 88 60
E 50 85 16
E 50 86 1
E 51 52 3
E 51 66 8
E 52 68 8
E 52 76 1
E 53 54 3
E 53 72 8
E 53 80 1
E 54 74 8
E 54 82 1
E 55 65 2
E 56 64 3
E 56 67 1
E 56 69 1
E 57 58 1
E 57 73 1
E 57 75 1
E 58 77 1
E 58 78 2
E 59 98 7
E 59 108 1
E 60 106 7
E 60 114 1
E 60 118 3
E 60 123 9
E 61 110 7
E 61 118 1
E 61 127 9
E 62 63 4
E 64 70 1
E 64 71 1
E 65 66 1
E 65 67 3
E 66 68 3
E 67 68 1
E 68 69 1
E 69 71 3
E 69 76 8
E 70 72 1
E 70 73 3
E 71 72 1
E 71 80 8
E 72 74 3
E 73 74 1
E 74 75 1
E 75 77 1
E 75 82 8
E 76 80 3
E 77 79 2
E 77 83 8
E 78 79 1
E 78 81 2
E 79 84 8
E 82 83 1
E 83 84 2
E 84 85 2
E 86 87 7
E 87 91 59
E 88 89 2
E 88 90 7
E 89 91 7
E 89 92 7
E 90 92 2
E 90 119 62
E 92 120 62
E 93 99 39
E 94 95 7
E 94 100 23
E 95 101 16
E 97 99 1
E 97 109 7
E 98 101 1
E 99 105 2
E 99 111 7
E 101 121 30
E 102 104 1
E 102 113 7
E 103 108 4
E 104 107 2
E 104 115 7
E 105 116 7
E 105 124 17
E 107 117 7
E 109 111 1
E 109 126 16
E 110 112 1
E 111 116 2
E 111 128 16
E 112 119 6
E 113 115 1
E 114 122 9
E 115 117 2
E 116 131 16
E 116 132 17
E 117 133 16
E 117 134 30
E 118 125 9
E 119 120 2
E 120 126 7
E 121 122 1
E 122 123 1
E 123 125 3
E 124 130 5
E 124 132 7
E 125 127 1
E 126 128 1
E 127 129 1
E 128 131 2
E 130 137 23
E 131 135 17
E 132 135 16
E 133 139 30
E 134 139 16
E 135 137 5
E 136 142 16
E 137 138 7
E 137 141 14
E 138 147 17
E 139 140 2
E 139 143 7
E 140 145 7
E 140 146 12
E 141 142 1
E 142 144 2
E 143 145 2
E 143 151 16
E 144 147 7
E 144 151 16
E 145 153 16
E 147 148 2
E 147 159 30
E 149 152 2
E 150 152 1
E 150 155 14
E 151 153 2
E 152 154 2
E 152 156 14
E 153 155 12
E 154 157 14
E 154 158 18
E 155 156 1
E 155 159 7
E 156 157 2
E 156 160 7
E 157 161 7
E 157 164 18
E 158 162 7
E 158 164 14
E 159 160 1
E 160 161 2
E 161 168 18
E 162 163 1
E 162 167 14
E 163 165 7
E 163 169 14
E 164 167 7
E 164 168 7
E 165 166 1
E 165 174 14
E 166 171 7
E 166 177 14
E 167 169 1
E 167 173 7
E 168 170 1
E 168 173 7
E 169 174 7
E 169 175 7
E 170 176 7
E 171 172 5
E 171 179 14
E 172 182 14
E 173 175 1
E 173 176 1
E 174 177 1
E 174 180 8
E 175 178 1
E 175 191 37
E 176 178 1
E 177 179 7
E 177 181 8
E 178 180 7
E 179 182 5
E 179 183 8
E 180 181 1
E 181 183 7
E 182 184 8
E 182 187 17
E 183 184 5
E 184 192 17
E 185 186 3
E 185 190 14
E 187 188 4
E 187 191 7
E 188 190 2
E 188 194 7
E 189 193 5
E 189 200 14
E 191 192 1
E 191 194 4
E 192 195 4
E 193 202 14
E 194 195 1
E 196 199 3
E 197 199 1
E 197 203 9
E 198 200 1
E 198 203 8
E 200 201 2
E 201 202 3
E 201 204 8
E 202 206 8
E 203 204 3
E 204 205 1
E 204 206 3
E 1 207 100000
E 2 207 100000
E 3 207 100000
E 4 207 100000
E 5 208 100000
E 6 208 100000
E 7 208 100000
E 8 209 100000
E 9 209 100000
E 10 209 100000
E 11 210 100000
E 12 210 100000
E 13 211 100000
E 14 211 100000
E 15 211 100000
E 16 211 100000
E 17 211 100000
E 18 211 100000
E 19 211 100000
E 20 212 100000
E 21 212 100000
E 22 213 100000
E 23 213 100000
E 24 213 100000
E 25 213 100000
E 26 214 100000
E 27 214 100000
E 28 214 100000
E 29 215 100000
E 30 215 100000
E 31 215 100000
E 32 215 100000
E 33 216 100000
E 34 216 100000
E 35 217 100000
E 36 217 100000
E 37 218 100000
E 38 218 100000
E 39 218 100000
E 40 219 100000
E 41 219 100000
E 42 219 100000
E 43 220 100000
E 44 220 100000
E 45 221 100000
E 46 221 100000
E 47 221 100000
E 48 222 100000
E 49 222 100000
E 50 222 100000
E 51 223 100000
E 52 223 100000
E 53 223 100000
E 54 223 100000
E 55 223 100000
E 56 223 100000
E 57 223 100000
E 58 223 100000
E 59 207 100000
E 60 213 100000
E 61 213 100000
E 62 214 100000
E 63 214 100000
E 64 223 100000
END

SECTION Terminals
Terminals 17
T 207
T 208
T 209
T 210
T 211
T 212
T 213
T 214
T 215
T 216
T 217
T 218
T 219
T 220
T 221
T 222
T 223
END

EOF
